Maximize

5 x_0 + 4 x_1 + 4 x_2 + 2 x_3 + 5 x_4


Subject To

a0: 80 x_0 + 120 x_1 + 60 x_2 + 190 x_3 + 130 x_4 <= 400
b0: 30 x_0 + 15 x_1 + 20 x_2 + 22 x_3 + 28 x_4 - 20 x_0 - 20 x_1 - 20 x_2 - 20 x_3 - 20 x_4 >= 0
c0: x_0 + x_1 >= 1
c1: x_2 >= 1
c2: x_3 + x_4 >= 1
d0: x_0 + x_1 - x_0 - x_1 <= 0
d1: x_2 - x_0 - x_1 <= 0
d2: x_3 + x_4 - x_0 - x_1 <= 0




Binary

x_0 x_1 x_2 x_3 x_4

 


End
